Route #1: 28 41 13 26 48 4 38 35 10 19
Route #2: 37 2 49 9 3 11 14 43 7 6 30 1 18 25 21 23 8 40
Route #3: 31 50 39 17 24 22 44
Route #4: 34 32 20 47 5 27 46 15 45 29 42 36 16 33 12
Cost 6978333.000000